# Solution for model r10_t27_m5_0 Batch Number: 1
# Finished Task: 27 / 27
# Makespan: 762.0, Total Distance: 263.0, Total Time: 85.9085
# R O S F Batch
0 0 29 0.0 0.0 -1
1 1 13 0.0 0.0 -1
2 2 35 0.0 0.0 -1
3 3 34 0.0 0.0 -1
4 4 -1 0.0 0.0 -1
5 5 20 0.0 0.0 -1
6 6 26 0.0 0.0 -1
7 7 12 0.0 0.0 -1
8 8 17 0.0 0.0 -1
9 9 22 0.0 0.0 -1
10 5 33 304.0 338.0 0
11 7 27 406.0 432.0 0
12 7 11 359.0 389.0 0
13 1 16 390.0 415.0 0
14 8 15 484.0 518.0 0
15 8 -1 704.0 729.0 0
16 1 32 431.0 468.0 0
17 8 25 247.0 276.0 0
18 2 -1 723.0 762.0 0
19 0 23 571.0 599.0 0
20 5 10 249.0 285.0 0
21 0 19 535.0 571.0 0
22 9 30 257.0 287.0 0
23 0 -1 599.0 630.0 0
24 1 -1 584.0 606.0 0
25 8 14 444.0 465.0 0
26 6 -1 330.0 359.0 0
27 7 -1 733.0 762.0 0
28 1 24 541.0 574.0 0
29 0 21 486.0 524.0 0
30 9 31 612.0 634.0 0
31 9 36 646.0 683.0 0
32 1 28 498.0 526.0 0
33 5 -1 374.0 397.0 0
34 3 -1 373.0 402.0 0
35 2 18 648.0 683.0 0
36 9 -1 695.0 723.0 0
